&CONTROL
   verbosity        = 'high'
   tstress          = .true.
   tprnfor          = .true.
   disk_io          = 'none'
   pseudo_dir       = './'
/
&SYSTEM
   ecutwfc          = 60.04839292407914
   ecutrho          = 480.0196501678836
   nosym            = .true.
   occupations      = 'smearing'
   degauss          = 0.007349864494991328
   smearing         = 'gaussian'
   nspin            = 1
   ntyp             = 2
   nat              = 270
   ibrav            = 0
/
&ELECTRONS
   electron_maxstep = 200
   scf_must_converge = .false.
   conv_thr         = 7.349864494991327e-07
   mixing_mode      = 'local-TF'
   mixing_beta      = 0.2
   mixing_ndim      = 10
/
&IONS
/
&CELL
/
&FCP
/
&RISM
/
ATOMIC_SPECIES
Al 26.9815385 Al.pbe-n-kjpaw_psl.1.0.0.UPF
O 15.999 O.pbe-n-kjpaw_psl.0.1.UPF

K_POINTS gamma

CELL_PARAMETERS angstrom
7.20754083127772 -12.48382691740024 0.00000000000000
7.20754083127772 12.48382691740024 0.00000000000000
0.00000000000000 0.00000000000000 13.11625324782234

ATOMIC_POSITIONS angstrom
Al 2.4025136104 1.3870918797 10.6841151522  
Al 4.8050272209 5.5483675188 10.6841151522  
Al 7.2075408313 9.7096431580 10.6841151522  
Al 4.8050272209 -2.7741837594 10.6841151522  
Al 7.2075408313 1.3870918797 10.6841151522  
Al 9.6100544417 5.5483675188 10.6841151522  
Al 7.2075408313 -6.9354593986 10.6841151522  
Al 9.6100544417 -2.7741837594 10.6841151522  
Al 12.0125680521 1.3870918797 10.6841151522  
Al 2.4025136104 -1.3870918797 8.9902647195  
Al 4.8050272209 2.7741837594 8.9902647195  
Al 7.2075408313 6.9354593986 8.9902647195  
Al 4.8050272209 -5.5483675188 8.9902647195  
Al 7.2075408313 -1.3870918797 8.9902647195  
Al 9.6100544417 2.7741837594 8.9902647195  
Al 7.2075408313 -9.7096431580 8.9902647195  
Al 9.6100544417 -5.5483675188 8.9902647195  
Al 12.0125680521 -1.3870918797 8.9902647195  
Al 0.0000000000 0.0000000000 8.4980729443  
Al 2.4025136104 4.1612756391 8.4980729443  
Al 4.8050272209 8.3225512783 8.4980729443  
Al 2.4025136104 -4.1612756391 8.4980729443  
Al 4.8050272209 0.0000000000 8.4980729443  
Al 7.2075408313 4.1612756391 8.4980729443  
Al 4.8050272209 -8.3225512783 8.4980729443  
Al 7.2075408313 -4.1612756391 8.4980729443  
Al 9.6100544417 0.0000000000 8.4980729443  
Al 2.4025136104 1.3870918797 6.8042225115  
Al 4.8050272209 5.5483675188 6.8042225115  
Al 7.2075408313 9.7096431580 6.8042225115  
Al 4.8050272209 -2.7741837594 6.8042225115  
Al 7.2075408313 1.3870918797 6.8042225115  
Al 9.6100544417 5.5483675188 6.8042225115  
Al 7.2075408313 -6.9354593986 6.8042225115  
Al 9.6100544417 -2.7741837594 6.8042225115  
Al 12.0125680521 1.3870918797 6.8042225115  
Al 0.0000000000 0.0000000000 1.9399463204  
Al 2.4025136104 4.1612756391 1.9399463204  
Al 4.8050272209 8.3225512783 1.9399463204  
Al 2.4025136104 -4.1612756391 1.9399463204  
Al 4.8050272209 0.0000000000 1.9399463204  
Al 7.2075408313 4.1612756391 1.9399463204  
Al 4.8050272209 -8.3225512783 1.9399463204  
Al 7.2075408313 -4.1612756391 1.9399463204  
Al 9.6100544417 0.0000000000 1.9399463204  
Al 2.4025136104 1.3870918797 0.2460958876  
Al 4.8050272209 5.5483675188 0.2460958876  
Al 7.2075408313 9.7096431580 0.2460958876  
Al 4.8050272209 -2.7741837594 0.2460958876  
Al 7.2075408313 1.3870918797 0.2460958876  
Al 9.6100544417 5.5483675188 0.2460958876  
Al 7.2075408313 -6.9354593986 0.2460958876  
Al 9.6100544417 -2.7741837594 0.2460958876  
Al 12.0125680521 1.3870918797 0.2460958876  
Al 2.4025136104 -1.3870918797 12.8701573602  
Al 4.8050272209 2.7741837594 12.8701573602  
Al 7.2075408313 6.9354593986 12.8701573602  
Al 4.8050272209 -5.5483675188 12.8701573602  
Al 7.2075408313 -1.3870918797 12.8701573602  
Al 9.6100544417 2.7741837594 12.8701573602  
Al 7.2075408313 -9.7096431580 12.8701573602  
Al 9.6100544417 -5.5483675188 12.8701573602  
Al 12.0125680521 -1.3870918797 12.8701573602  
Al 0.0000000000 0.0000000000 11.1763069275  
Al 2.4025136104 4.1612756391 11.1763069275  
Al 4.8050272209 8.3225512783 11.1763069275  
Al 2.4025136104 -4.1612756391 11.1763069275  
Al 4.8050272209 0.0000000000 11.1763069275  
Al 7.2075408313 4.1612756391 11.1763069275  
Al 4.8050272209 -8.3225512783 11.1763069275  
Al 7.2075408313 -4.1612756391 11.1763069275  
Al 9.6100544417 0.0000000000 11.1763069275  
Al 2.4025136104 -1.3870918797 6.3120307363  
Al 4.8050272209 2.7741837594 6.3120307363  
Al 7.2075408313 6.9354593986 6.3120307363  
Al 4.8050272209 -5.5483675188 6.3120307363  
Al 7.2075408313 -1.3870918797 6.3120307363  
Al 9.6100544417 2.7741837594 6.3120307363  
Al 7.2075408313 -9.7096431580 6.3120307363  
Al 9.6100544417 -5.5483675188 6.3120307363  
Al 12.0125680521 -1.3870918797 6.3120307363  
Al 0.0000000000 0.0000000000 4.6181803035  
Al 2.4025136104 4.1612756391 4.6181803035  
Al 4.8050272209 8.3225512783 4.6181803035  
Al 2.4025136104 -4.1612756391 4.6181803035  
Al 4.8050272209 0.0000000000 4.6181803035  
Al 7.2075408313 4.1612756391 4.6181803035  
Al 4.8050272209 -8.3225512783 4.6181803035  
Al 7.2075408313 -4.1612756391 4.6181803035  
Al 9.6100544417 0.0000000000 4.6181803035  
Al 2.4025136104 1.3870918797 4.1259885283  
Al 4.8050272209 5.5483675188 4.1259885283  
Al 7.2075408313 9.7096431580 4.1259885283  
Al 4.8050272209 -2.7741837594 4.1259885283  
Al 7.2075408313 1.3870918797 4.1259885283  
Al 9.6100544417 5.5483675188 4.1259885283  
Al 7.2075408313 -6.9354593986 4.1259885283  
Al 9.6100544417 -2.7741837594 4.1259885283  
Al 12.0125680521 1.3870918797 4.1259885283  
Al 2.4025136104 -1.3870918797 2.4321380956  
Al 4.8050272209 2.7741837594 2.4321380956  
Al 7.2075408313 6.9354593986 2.4321380956  
Al 4.8050272209 -5.5483675188 2.4321380956  
Al 7.2075408313 -1.3870918797 2.4321380956  
Al 9.6100544417 2.7741837594 2.4321380956  
Al 7.2075408313 -9.7096431580 2.4321380956  
Al 9.6100544417 -5.5483675188 2.4321380956  
Al 12.0125680521 -1.3870918797 2.4321380956  
O 1.6669948799 -0.1131360685 7.6511477279  
O 4.0695084903 4.0481395706 7.6511477279  
O 6.4720221008 8.2094152097 7.6511477279  
O 4.0695084903 -4.2744117077 7.6511477279  
O 6.4720221008 -0.1131360685 7.6511477279  
O 8.8745357112 4.0481395706 7.6511477279  
O 6.4720221008 -8.4356873468 7.6511477279  
O 8.8745357112 -4.2744117077 7.6511477279  
O 11.2770493216 -0.1131360685 7.6511477279  
O 3.3339897598 0.0000000000 9.8371899359  
O 5.7365033702 4.1612756391 9.8371899359  
O 8.1390169807 8.3225512783 9.8371899359  
O 5.7365033702 -4.1612756391 9.8371899359  
O 8.1390169807 0.0000000000 9.8371899359  
O 10.5415305911 4.1612756391 9.8371899359  
O 8.1390169807 -8.3225512783 9.8371899359  
O 10.5415305911 -4.1612756391 9.8371899359  
O 12.9440442015 0.0000000000 9.8371899359  
O 3.8735510715 -1.3870918797 7.6511477279  
O 6.2760646819 2.7741837594 7.6511477279  
O 8.6785782923 6.9354593986 7.6511477279  
O 6.2760646819 -5.5483675188 7.6511477279  
O 8.6785782923 -1.3870918797 7.6511477279  
O 11.0810919027 2.7741837594 7.6511477279  
O 8.6785782923 -9.7096431580 7.6511477279  
O 11.0810919027 -5.5483675188 7.6511477279  
O 13.4836055132 -1.3870918797 7.6511477279  
O 1.6669948799 -2.6610476909 7.6511477279  
O 4.0695084903 1.5002279482 7.6511477279  
O 6.4720221008 5.6615035874 7.6511477279  
O 4.0695084903 -6.8223233300 7.6511477279  
O 6.4720221008 -2.6610476909 7.6511477279  
O 8.8745357112 1.5002279482 7.6511477279  
O 6.4720221008 -10.9835989692 7.6511477279  
O 8.8745357112 -6.8223233300 7.6511477279  
O 11.2770493216 -2.6610476909 7.6511477279  
O 0.7355187305 1.2739558112 9.8371899359  
O 3.1380323409 5.4352314503 9.8371899359  
O 5.5405459514 9.5965070894 9.8371899359  
O 3.1380323409 -2.8873198280 9.8371899359  
O 5.5405459514 1.2739558112 9.8371899359  
O 7.9430595618 5.4352314503 9.8371899359  
O 5.5405459514 -7.0485954671 9.8371899359  
O 7.9430595618 -2.8873198280 9.8371899359  
O 10.3455731722 1.2739558112 9.8371899359  
O 0.7355187305 -1.2739558112 9.8371899359  
O 3.1380323409 2.8873198280 9.8371899359  
O 5.5405459514 7.0485954671 9.8371899359  
O 3.1380323409 -5.4352314503 9.8371899359  
O 5.5405459514 -1.2739558112 9.8371899359  
O 7.9430595618 2.8873198280 9.8371899359  
O 5.5405459514 -9.5965070894 9.8371899359  
O 7.9430595618 -5.4352314503 9.8371899359  
O 10.3455731722 -1.2739558112 9.8371899359  
O 1.6669948799 2.6610476909 12.0232321438  
O 4.0695084903 6.8223233300 12.0232321438  
O 6.4720221008 10.9835989692 12.0232321438  
O 4.0695084903 -1.5002279482 12.0232321438  
O 6.4720221008 2.6610476909 12.0232321438  
O 8.8745357112 6.8223233300 12.0232321438  
O 6.4720221008 -5.6615035874 12.0232321438  
O 8.8745357112 -1.5002279482 12.0232321438  
O 11.2770493216 2.6610476909 12.0232321438  
O 0.9314761494 -1.3870918797 1.0930211040  
O 3.3339897598 2.7741837594 1.0930211040  
O 5.7365033702 6.9354593986 1.0930211040  
O 3.3339897598 -5.5483675188 1.0930211040  
O 5.7365033702 -1.3870918797 1.0930211040  
O 8.1390169807 2.7741837594 1.0930211040  
O 5.7365033702 -9.7096431580 1.0930211040  
O 8.1390169807 -5.5483675188 1.0930211040  
O 10.5415305911 -1.3870918797 1.0930211040  
O 3.8735510715 1.3870918797 12.0232321438  
O 6.2760646819 5.5483675188 12.0232321438  
O 8.6785782923 9.7096431580 12.0232321438  
O 6.2760646819 -2.7741837594 12.0232321438  
O 8.6785782923 1.3870918797 12.0232321438  
O 11.0810919027 5.5483675188 12.0232321438  
O 8.6785782923 -6.9354593986 12.0232321438  
O 11.0810919027 -2.7741837594 12.0232321438  
O 13.4836055132 1.3870918797 12.0232321438  
O 1.6669948799 0.1131360685 12.0232321438  
O 4.0695084903 4.2744117077 12.0232321438  
O 6.4720221008 8.4356873468 12.0232321438  
O 4.0695084903 -4.0481395706 12.0232321438  
O 6.4720221008 0.1131360685 12.0232321438  
O 8.8745357112 4.2744117077 12.0232321438  
O 6.4720221008 -8.2094152097 12.0232321438  
O 8.8745357112 -4.0481395706 12.0232321438  
O 11.2770493216 0.1131360685 12.0232321438  
O 3.1380323409 -0.1131360685 1.0930211040  
O 5.5405459514 4.0481395706 1.0930211040  
O 7.9430595618 8.2094152097 1.0930211040  
O 5.5405459514 -4.2744117077 1.0930211040  
O 7.9430595618 -0.1131360685 1.0930211040  
O 10.3455731722 4.0481395706 1.0930211040  
O 7.9430595618 -8.4356873468 1.0930211040  
O 10.3455731722 -4.2744117077 1.0930211040  
O 12.7480867827 -0.1131360685 1.0930211040  
O 3.1380323409 -2.6610476909 1.0930211040  
O 5.5405459514 1.5002279482 1.0930211040  
O 7.9430595618 5.6615035874 1.0930211040  
O 5.5405459514 -6.8223233300 1.0930211040  
O 7.9430595618 -2.6610476909 1.0930211040  
O 10.3455731722 1.5002279482 1.0930211040  
O 7.9430595618 -10.9835989692 1.0930211040  
O 10.3455731722 -6.8223233300 1.0930211040  
O 12.7480867827 -2.6610476909 1.0930211040  
O 1.6669948799 -2.8873198280 3.2790633120  
O 4.0695084903 1.2739558112 3.2790633120  
O 6.4720221008 5.4352314503 3.2790633120  
O 4.0695084903 -7.0485954671 3.2790633120  
O 6.4720221008 -2.8873198280 3.2790633120  
O 8.8745357112 1.2739558112 3.2790633120  
O 6.4720221008 -11.2098711062 3.2790633120  
O 8.8745357112 -7.0485954671 3.2790633120  
O 11.2770493216 -2.8873198280 3.2790633120  
O 0.9314761494 1.3870918797 5.4651055199  
O 3.3339897598 5.5483675188 5.4651055199  
O 5.7365033702 9.7096431580 5.4651055199  
O 3.3339897598 -2.7741837594 5.4651055199  
O 5.7365033702 1.3870918797 5.4651055199  
O 8.1390169807 5.5483675188 5.4651055199  
O 5.7365033702 -6.9354593986 5.4651055199  
O 8.1390169807 -2.7741837594 5.4651055199  
O 10.5415305911 1.3870918797 5.4651055199  
O 1.4710374610 0.0000000000 3.2790633120  
O 3.8735510715 4.1612756391 3.2790633120  
O 6.2760646819 8.3225512783 3.2790633120  
O 3.8735510715 -4.1612756391 3.2790633120  
O 6.2760646819 0.0000000000 3.2790633120  
O 8.6785782923 4.1612756391 3.2790633120  
O 6.2760646819 -8.3225512783 3.2790633120  
O 8.6785782923 -4.1612756391 3.2790633120  
O 11.0810919027 0.0000000000 3.2790633120  
O 1.6669948799 2.8873198280 3.2790633120  
O 4.0695084903 7.0485954671 3.2790633120  
O 6.4720221008 11.2098711062 3.2790633120  
O 4.0695084903 -1.2739558112 3.2790633120  
O 6.4720221008 2.8873198280 3.2790633120  
O 8.8745357112 7.0485954671 3.2790633120  
O 6.4720221008 -5.4352314503 3.2790633120  
O 8.8745357112 -1.2739558112 3.2790633120  
O 11.2770493216 2.8873198280 3.2790633120  
O 3.1380323409 2.6610476909 5.4651055199  
O 5.5405459514 6.8223233300 5.4651055199  
O 7.9430595618 10.9835989692 5.4651055199  
O 5.5405459514 -1.5002279482 5.4651055199  
O 7.9430595618 2.6610476909 5.4651055199  
O 10.3455731722 6.8223233300 5.4651055199  
O 7.9430595618 -5.6615035874 5.4651055199  
O 10.3455731722 -1.5002279482 5.4651055199  
O 12.7480867827 2.6610476909 5.4651055199  
O 3.1380323409 0.1131360685 5.4651055199  
O 5.5405459514 4.2744117077 5.4651055199  
O 7.9430595618 8.4356873468 5.4651055199  
O 5.5405459514 -4.0481395706 5.4651055199  
O 7.9430595618 0.1131360685 5.4651055199  
O 10.3455731722 4.2744117077 5.4651055199  
O 7.9430595618 -8.2094152097 5.4651055199  
O 10.3455731722 -4.0481395706 5.4651055199  
O 12.7480867827 0.1131360685 5.4651055199  

# pseudo_type: SSSP_efficiency
